p cnf 72 239
1 2 -3 0
-1 -2 -3 0
1 -2 3 0
-1 2 3 0
4 -1 0
4 3 0
1 -3 -4 0
-7 5 0
-7 6 0
-5 -6 7 0
-7 -8 -9 0
7 8 -9 0
-7 8 9 0
7 -8 9 0
-10 8 0
-10 5 0
-8 -5 10 0
8 10 -11 0
-8 -10 -11 0
8 -10 11 0
-8 10 11 0
-10 7 -12 0
10 -7 -12 0
-10 -7 12 0
10 7 12 0
-13 11 0
-13 -12 0
-11 12 13 0
13 10 -14 0
-13 -10 -14 0
13 -10 14 0
-13 10 14 0
-16 -17 -18 0
16 17 -18 0
-16 17 18 0
16 -17 18 0
-19 18 0
-19 8 0
-18 -8 19 0
15 -19 -20 0
-15 19 -20 0
15 19 20 0
-15 -19 20 0
-22 20 0
-22 -21 0
-20 21 22 0
-14 -22 -23 0
14 22 -23 0
-14 22 23 0
14 -22 23 0
-9 23 -24 0
9 -23 -24 0
-9 -23 24 0
9 23 24 0
27 -25 0
27 26 0
25 -26 -27 0
-10 -27 -28 0
10 27 -28 0
-10 27 28 0
10 -27 28 0
29 24 0
29 28 0
-24 -28 -29 0
30 -4 0
30 -29 0
4 29 -30 0
32 31 0
32 8 0
-31 -8 -32 0
34 33 0
34 10 0
-33 -10 -34 0
-7 -34 -35 0
7 34 -35 0
-7 34 35 0
7 -34 35 0
-36 32 0
-36 35 0
-32 -35 36 0
-38 -20 0
-38 -37 0
20 37 38 0
-39 -36 0
-39 38 0
36 -38 39 0
-40 -7 0
-40 21 0
7 -21 40 0
16 13 -41 0
-16 -13 -41 0
16 -13 41 0
-16 13 41 0
42 -40 0
42 -41 0
40 41 -42 0
-43 -39 0
-43 42 0
39 -42 43 0
30 -43 -44 0
-30 43 -44 0
30 43 44 0
-30 -43 44 0
-33 -27 -45 0
33 27 -45 0
-33 27 45 0
33 -27 45 0
-46 -45 0
-46 21 0
45 -21 46 0
-12 -33 -47 0
12 33 -47 0
-12 33 47 0
12 -33 47 0
-48 -15 0
-48 -18 0
15 18 48 0
-8 1 -49 0
8 -1 -49 0
-8 -1 49 0
8 1 49 0
-50 20 0
-50 45 0
-20 -45 50 0
-49 -50 -51 0
49 50 -51 0
-49 50 51 0
49 -50 51 0
-48 -51 -52 0
48 51 -52 0
-48 51 52 0
48 -51 52 0
53 47 0
53 -52 0
-47 52 -53 0
-46 53 -54 0
46 -53 -54 0
-46 -53 54 0
46 53 54 0
55 -27 0
55 -7 0
27 7 -55 0
-7 31 -56 0
7 -31 -56 0
-7 -31 56 0
7 31 56 0
-57 27 0
-57 -21 0
-27 21 57 0
58 21 0
58 -3 0
-21 3 -58 0
59 -57 0
59 58 0
57 -58 -59 0
-60 59 0
-60 -10 0
-59 10 60 0
-61 31 0
-61 -60 0
-31 60 61 0
62 -33 0
62 8 0
33 -8 -62 0
-61 62 -63 0
61 -62 -63 0
-61 -62 63 0
61 62 63 0
64 -45 0
64 15 0
45 -15 -64 0
65 63 0
65 -64 0
-63 64 -65 0
-17 50 -66 0
17 -50 -66 0
-17 -50 66 0
17 50 66 0
67 -66 0
67 57 0
66 -57 -67 0
68 -65 0
68 67 0
65 -67 -68 0
69 56 0
69 -68 0
-56 68 -69 0
55 -69 -70 0
-55 69 -70 0
55 69 70 0
-55 -69 70 0
54 70 -71 0
-54 -70 -71 0
54 -70 71 0
-54 70 71 0
-72 -44 0
-72 -71 0
44 71 72 0
-3 56 39 33 21 0
14 -54 -15 0
54 -59 -7 -36 0
-13 -27 -19 0
-27 -33 -48 -7 -17 0
19 8 70 0
-64 -60 0
43 -38 24 44 -35 0
25 -54 -38 35 8 0
30 -2 14 0
-61 52 -24 0
-50 17 -68 -1 0
-16 -18 55 0
22 -15 0
-19 0
5 -26 -54 -27 0
1 67 -19 0
29 -69 0
65 33 -61 41 -9 0
-10 -14 26 0
-61 14 -48 30 -26 -65 0
29 16 0
40 21 48 6 0
18 -54 45 25 0
-35 -70 32 -44 -22 0
65 67 40 0
59 -17 6 0
4 -69 0
54 7 0
33 53 -46 21 0
62 5 3 -25 0
57 48 -63 -68 31 60 0
-72 -62 21 -71 0
-69 31 -22 0
8 -54 -52 0
41 -13 34 8 -28 0
57 51 -60 25 0
-17 -70 -18 54 59 0
-23 -20 -43 -66 0
39 -51 12 52 0
72 0
